NAME : hk48.23307.tour
COMMENT : Cost = 3943_23307
COMMENT : Found by LKH [Keld Helsgaun] Thu Nov 16 17:33:43 2017
TYPE : TOUR
DIMENSION : 57
TOUR_SECTION
1
2
49
37
50
16
51
6
24
52
11
20
31
55
43
21
33
30
23
9
3
5
15
53
42
4
46
45
39
44
27
56
26
29
32
25
10
40
36
34
38
13
28
48
54
35
17
12
18
7
8
47
14
22
41
57
19
-1
EOF
